% Auto-generated by scripts/generate_dzn.py
% problem_type   = regex
% instance       = regex_74
% source_json    = instances_json/1_medium_blowup/regex_74.json
% blowup         = 9.538461538461538
% representation = NFA

mode = 1;

var_count = 19;
n_constraints = 2;
Q = 14;
S = 3;
q0 = [1, 1];
F = [{12}, {14}];
weights = [9, 2, 7, 8, 8, 7, 9, 10, 8, 9, 3, 3, 9, 3, 3, 3, 8, 3, 8];
d_dfa = array3d(1..2, 1..14, 1..3, [
  % k = 1
    0, 0, 0,
    0, 0, 0,
    0, 0, 0,
    0, 0, 0,
    0, 0, 0,
    0, 0, 0,
    0, 0, 0,
    0, 0, 0,
    0, 0, 0,
    0, 0, 0,
    0, 0, 0,
    0, 0, 0,
    0, 0, 0,
    0, 0, 0,

  % k = 2
    0, 0, 0,
    0, 0, 0,
    0, 0, 0,
    0, 0, 0,
    0, 0, 0,
    0, 0, 0,
    0, 0, 0,
    0, 0, 0,
    0, 0, 0,
    0, 0, 0,
    0, 0, 0,
    0, 0, 0,
    0, 0, 0,
    0, 0, 0
]);
d_nfa = array3d(1..2, 1..14, 1..3, [
  % k = 1
    {1}, {1}, {1, 2},
    {3}, {}, {},
    {4}, {4}, {4},
    {5}, {5}, {5},
    {6}, {6}, {6},
    {7}, {7}, {7},
    {8}, {8}, {8},
    {9}, {9}, {9},
    {10}, {10}, {10},
    {11}, {11}, {11},
    {12}, {12}, {12},
    {}, {}, {},
    {}, {}, {},
    {}, {}, {},

  % k = 2
    {1}, {1}, {2},
    {2}, {2}, {3},
    {3}, {3}, {4},
    {4}, {4}, {5},
    {5}, {5}, {6},
    {6}, {6}, {7},
    {7}, {7}, {8},
    {8}, {8}, {9},
    {9}, {9}, {10},
    {10}, {10}, {11},
    {11}, {11}, {12},
    {12}, {12}, {13},
    {13}, {13}, {14},
    {14}, {14}, {}
]);
